
-9.68
-9.52
-9.32
-9.12
-8.76
-8.68
-8.6
-8.48
-8.48
-8.44
-8.32
-8.32
-8.24
-8.16
-8.12
-8.12
-8.04
-8.0
-7.96
-7.88
-0.92
-0.92
-0.92
-0.92
-0.92
-0.92
-0.6
-0.6
-0.32
-0.32
-0.32
-0.32
-0.32
-0.32
-0.32
-0.32
-0.32